\ENCODING=ISO-8859-1
\Problem name: ilog.cplex

Minimize
 obj1: 102861 x1 + 108070 x2 + 98903 x3 + 103173 x4 + 109939 x5 + 93352 x6
       + 95739 x7 + 103428 x8 + 105275 x9 + 107155 x10 + 97861 x11 + 95468 x12
       + 102072 x13 + 105157 x14 + 108065 x15 + 96615 x16 + 99363 x17
       + 104348 x18 + 107192 x19 + 105226 x20 + 91056 x21 + 97395 x22
       + 98363 x23 + 97993 x24 + 91091 x25 + 96202 x26 + 104401 x27 + 96129 x28
       + 98844 x29 + 102972 x30 + 90706 x31 + 97913 x32 + 92795 x33
       + 109307 x34 + 107547 x35 + 107589 x36 + 105063 x37 + 91683 x38
       + 98143 x39 + 98729 x40 + 94565 x41 + 105131 x42 + 101849 x43
       + 93985 x44 + 102367 x45 + 96006 x46 + 95404 x47 + 102500 x48
       + 99218 x49 + 99441 x50 + 97442 x51 + 92269 x52 + 97693 x53 + 105934 x54
       + 109484 x55 + 98562 x56 + 95672 x57 + 99225 x58 + 109104 x59
       + 96456 x60 + 91840 x61 + 92631 x62 + 107159 x63 + 93600 x64
       + 103096 x65 + 104913 x66 + 95261 x67 + 99823 x68 + 102118 x69
       + 92162 x70 + 101363 x71 + 92178 x72 + 105109 x73 + 91365 x74
       + 93540 x75 + 106742 x76 + 100779 x77 + 102406 x78 + 97725 x79
       + 100740 x80 + 99521 x81 + 104451 x82 + 90490 x83 + 108459 x84
       + 97409 x85 + 95342 x86 + 108922 x87 + 104905 x88 + 100889 x89
       + 95927 x90 + 106209 x91 + 92259 x92 + 104954 x93 + 95169 x94
       + 93792 x95 + 95915 x96 + 100093 x97 + 106436 x98 + 108732 x99
       + 99290 x100 + 99522 x101 + 107496 x102 + 97037 x103 + 103902 x104
       + 109849 x105 + 104529 x106 + 91141 x107 + 97503 x108 + 108640 x109
       + 99127 x110 + 91875 x111 + 91398 x112 + 99971 x113 + 100324 x114
       + 103219 x115 + 98924 x116 + 106076 x117 + 90348 x118 + 99542 x119
       + 102656 x120 + 98146 x121 + 94259 x122 + 104929 x123 + 100176 x124
       + 108688 x125 + 106456 x126 + 105725 x127 + 101352 x128 + 95992 x129
       + 95149 x130 + 105786 x131 + 109412 x132 + 109283 x133 + 104670 x134
       + 94709 x135 + 92184 x136 + 91712 x137 + 109882 x138 + 100773 x139
       + 109567 x140 + 97592 x141 + 106966 x142 + 102317 x143 + 108626 x144
       + 90166 x145 + 90527 x146 + 94033 x147 + 108693 x148 + 106641 x149
       + 108196 x150 + 100838 x151 + 92238 x152 + 104702 x153 + 95857 x154
       + 108964 x155 + 97727 x156 + 106221 x157 + 100330 x158 + 94108 x159
       + 102707 x160 + 107727 x161 + 107231 x162 + 107696 x163 + 98018 x164
       + 102915 x165 + 99809 x166 + 99321 x167 + 96372 x168 + 108306 x169
       + 95865 x170 + 91367 x171 + 99103 x172 + 105975 x173 + 105240 x174
       + 97565 x175 + 100650 x176 + 104593 x177 + 101235 x178 + 109334 x179
       + 99372 x180 + 92881 x181 + 95225 x182 + 95651 x183 + 92305 x184
       + 106790 x185 + 90495 x186 + 99726 x187 + 100947 x188 + 104524 x189
       + 108678 x190 + 108888 x191 + 105388 x192 + 102020 x193 + 90151 x194
       + 102854 x195 + 94870 x196 + 105551 x197 + 108380 x198 + 109982 x199
       + 94311 x200 + 98346 x201 + 109325 x202 + 91752 x203 + 105997 x204
       + 97161 x205 + 107509 x206 + 107707 x207 + 109593 x208 + 91637 x209
       + 103191 x210 + 97710 x211 + 90335 x212 + 109311 x213 + 105505 x214
       + 99206 x215 + 107608 x216 + 107160 x217 + 94770 x218 + 103406 x219
       + 101696 x220 + 102411 x221 + 106012 x222 + 101489 x223 + 104320 x224
       + 108394 x225 + 104960 x226 + 109691 x227 + 106957 x228 + 108845 x229
       + 103057 x230 + 98881 x231 + 99183 x232 + 101157 x233 + 98372 x234
       + 99134 x235 + 109941 x236 + 96722 x237 + 95213 x238 + 105261 x239
       + 100910 x240 + 104828 x241 + 106884 x242 + 95407 x243 + 93011 x244
       + 105484 x245 + 103170 x246 + 91517 x247 + 94656 x248 + 96112 x249
       - 96797 x250 + 18489 x251 + 18996 x252 + 19977 x253 + 20730 x254
       + 21722 x255 + 20443 x256 + 19450 x257 + 21567 x258 + 20072 x259
       + 20048 x260 + 20186 x261 + 18458 x262 + 19479 x263 + 20820 x264
       + 21762 x265 + 20096 x266 + 21749 x267 + 18913 x268 + 20718 x269
       + 19362 x270 + 20379 x271 + 19912 x272 + 21055 x273 + 21305 x274
       + 19611 x275 + 18364 x276 + 20307 x277 + 19046 x278 + 20110 x279
       + 20760 x280 + 19293 x281 + 20453 x282 + 20980 x283 + 19560 x284
       + 20254 x285 + 20488 x286 + 19632 x287 + 19560 x288 + 18013 x289
       + 18534 x290 + 20101 x291 + 18003 x292 + 20095 x293 + 20781 x294
       + 18959 x295 + 18298 x296 + 18471 x297 + 20929 x298 + 21819 x299
       + 21891 x300
Subject To
 c1:   x2 + x7 - x11 - x23 - x33 + x50  = 1
 c2:   x52 + x57 - x61 - x73 - x83 + x100  = 1
 c3:   x102 + x107 - x111 - x123 - x133 + x150  = 0
 c4:   x152 + x157 - x161 - x173 - x183 + x200  = 0
 c5:   x202 + x207 - x211 - x223 - x233 + x250  = 0
 c6:   - x7 + x9 - x15 - x16 + x36  = 0
 c7:   - x57 + x59 - x65 - x66 + x86  = 0
 c8:   - x107 + x109 - x115 - x116 + x136  = 0
 c9:   - x157 + x159 - x165 - x166 + x186  = 0
 c10:  - x207 + x209 - x215 - x216 + x236  = 0
 c11:  x3 - x10 - x13 + x16 + x18 - x42 - x49 - x50  = 0
 c12:  x53 - x60 - x63 + x66 + x68 - x92 - x99 - x100  = 0
 c13:  x103 - x110 - x113 + x116 + x118 - x142 - x149 - x150  = 0
 c14:  x153 - x160 - x163 + x166 + x168 - x192 - x199 - x200  = 0
 c15:  x203 - x210 - x213 + x216 + x218 - x242 - x249 - x250  = 0
 c16:  x12 + x23 + x26 - x31 - x36 + x38 + x39 + x41 - x43 - x45  = 0
 c17:  x62 + x73 + x76 - x81 - x86 + x88 + x89 + x91 - x93 - x95  = 0
 c18:  x112 + x123 + x126 - x131 - x136 + x138 + x139 + x141 - x143 - x145  = 0
 c19:  x162 + x173 + x176 - x181 - x186 + x188 + x189 + x191 - x193 - x195  = 0
 c20:  x212 + x223 + x226 - x231 - x236 + x238 + x239 + x241 - x243 - x245  = 0
 c21:  - x1 - x3 + x6 - x21 - x29 - x30 + x37 + x48  = 0
 c22:  - x51 - x53 + x56 - x71 - x79 - x80 + x87 + x98  = 0
 c23:  - x101 - x103 + x106 - x121 - x129 - x130 + x137 + x148  = 0
 c24:  - x151 - x153 + x156 - x171 - x179 - x180 + x187 + x198  = 1
 c25:  - x201 - x203 + x206 - x221 - x229 - x230 + x237 + x248  = 0
 c26:  - x26 + x44 - x47  = 0
 c27:  - x76 + x94 - x97  = 0
 c28:  - x126 + x144 - x147  = 0
 c29:  - x176 + x194 - x197  = 0
 c30:  - x226 + x244 - x247  = 0
 c31:  - x6 - x17 + x24 + x27 + x31 - x40 + x49  = 0
 c32:  - x56 - x67 + x74 + x77 + x81 - x90 + x99  = 0
 c33:  - x106 - x117 + x124 + x127 + x131 - x140 + x149  = 0
 c34:  - x156 - x167 + x174 + x177 + x181 - x190 + x199  = 0
 c35:  - x206 - x217 + x224 + x227 + x231 - x240 + x249  = 0
 c36:  - x8 + x28 + x32 + x40 + x45 + x46  = 0
 c37:  - x58 + x78 + x82 + x90 + x95 + x96  = 0
 c38:  - x108 + x128 + x132 + x140 + x145 + x146  = 1
 c39:  - x158 + x178 + x182 + x190 + x195 + x196  = 0
 c40:  - x208 + x228 + x232 + x240 + x245 + x246  = 0
 c41:  x5 + x33 + x35 - x41  = 0
 c42:  x55 + x83 + x85 - x91  = 0
 c43:  x105 + x133 + x135 - x141  = 0
 c44:  x155 + x183 + x185 - x191  = 0
 c45:  x205 + x233 + x235 - x241  = -1
 c46:  x15 + x21 - x27 + x47  = 0
 c47:  x65 + x71 - x77 + x97  = -1
 c48:  x115 + x121 - x127 + x147  = 0
 c49:  x165 + x171 - x177 + x197  = 0
 c50:  x215 + x221 - x227 + x247  = 0
 c51:  - x5 + x10 - x12 + x14 - x18 + x19 + x20 - x24 + x30 - x46  = 0
 c52:  - x55 + x60 - x62 + x64 - x68 + x69 + x70 - x74 + x80 - x96  = 0
 c53:  - x105 + x110 - x112 + x114 - x118 + x119 + x120 - x124 + x130 - x146
        = 0
 c54:  - x155 + x160 - x162 + x164 - x168 + x169 + x170 - x174 + x180 - x196
        = 0
 c55:  - x205 + x210 - x212 + x214 - x218 + x219 + x220 - x224 + x230 - x246
        = 0
 c56:  - x4 + x8 + x13 - x14 + x34 - x35 - x39 + x43 - x48  = 0
 c57:  - x54 + x58 + x63 - x64 + x84 - x85 - x89 + x93 - x98  = 0
 c58:  - x104 + x108 + x113 - x114 + x134 - x135 - x139 + x143 - x148  = 0
 c59:  - x154 + x158 + x163 - x164 + x184 - x185 - x189 + x193 - x198  = 0
 c60:  - x204 + x208 + x213 - x214 + x234 - x235 - x239 + x243 - x248  = 0
 c61:  - x2 + x4 + x11 + x22 - x25 - x34 + x42  = 0
 c62:  - x52 + x54 + x61 + x72 - x75 - x84 + x92  = 0
 c63:  - x102 + x104 + x111 + x122 - x125 - x134 + x142  = 0
 c64:  - x152 + x154 + x161 + x172 - x175 - x184 + x192  = 0
 c65:  - x202 + x204 + x211 + x222 - x225 - x234 + x242  = 0
 c66:  - x9 + x17 - x19 - x22 + x25 + x29 - x32 - x44  = 0
 c67:  - x59 + x67 - x69 - x72 + x75 + x79 - x82 - x94  = 0
 c68:  - x109 + x117 - x119 - x122 + x125 + x129 - x132 - x144  = -1
 c69:  - x159 + x167 - x169 - x172 + x175 + x179 - x182 - x194  = -1
 c70:  - x209 + x217 - x219 - x222 + x225 + x229 - x232 - x244  = 1
 c71:  x1 - x20 - x28 - x37 - x38  = -1
 c72:  x51 - x70 - x78 - x87 - x88  = 0
 c73:  x101 - x120 - x128 - x137 - x138  = 0
 c74:  x151 - x170 - x178 - x187 - x188  = 0
 c75:  x201 - x220 - x228 - x237 - x238  = 0
 c76:  4 x1 + 4 x51 + 4 x101 + 4 x151 + 4 x201 - 10 x251 <= 0
 c77:  4 x2 + 4 x52 + 4 x102 + 4 x152 + 4 x202 - 10 x252 <= 0
 c78:  4 x3 + 4 x53 + 4 x103 + 4 x153 + 4 x203 - 9 x253 <= 0
 c79:  4 x4 + 4 x54 + 4 x104 + 4 x154 + 4 x204 - 10 x254 <= 0
 c80:  4 x5 + 4 x55 + 4 x105 + 4 x155 + 4 x205 - 10 x255 <= 0
 c81:  4 x6 + 4 x56 + 4 x106 + 4 x156 + 4 x206 - 10 x256 <= 0
 c82:  4 x7 + 4 x57 + 4 x107 + 4 x157 + 4 x207 - 10 x257 <= 0
 c83:  4 x8 + 4 x58 + 4 x108 + 4 x158 + 4 x208 - 10 x258 <= 0
 c84:  4 x9 + 4 x59 + 4 x109 + 4 x159 + 4 x209 - 10 x259 <= 0
 c85:  4 x10 + 4 x60 + 4 x110 + 4 x160 + 4 x210 - 10 x260 <= 0
 c86:  4 x11 + 4 x61 + 4 x111 + 4 x161 + 4 x211 - 9 x261 <= 0
 c87:  4 x12 + 4 x62 + 4 x112 + 4 x162 + 4 x212 - 10 x262 <= 0
 c88:  4 x13 + 4 x63 + 4 x113 + 4 x163 + 4 x213 - 10 x263 <= 0
 c89:  4 x14 + 4 x64 + 4 x114 + 4 x164 + 4 x214 - 10 x264 <= 0
 c90:  4 x15 + 4 x65 + 4 x115 + 4 x165 + 4 x215 - 10 x265 <= 0
 c91:  4 x16 + 4 x66 + 4 x116 + 4 x166 + 4 x216 - 9 x266 <= 0
 c92:  4 x17 + 4 x67 + 4 x117 + 4 x167 + 4 x217 - 11 x267 <= 0
 c93:  4 x18 + 4 x68 + 4 x118 + 4 x168 + 4 x218 - 9 x268 <= 0
 c94:  4 x19 + 4 x69 + 4 x119 + 4 x169 + 4 x219 - 10 x269 <= 0
 c95:  4 x20 + 4 x70 + 4 x120 + 4 x170 + 4 x220 - 11 x270 <= 0
 c96:  4 x21 + 4 x71 + 4 x121 + 4 x171 + 4 x221 - 10 x271 <= 0
 c97:  4 x22 + 4 x72 + 4 x122 + 4 x172 + 4 x222 - 11 x272 <= 0
 c98:  4 x23 + 4 x73 + 4 x123 + 4 x173 + 4 x223 - 9 x273 <= 0
 c99:  4 x24 + 4 x74 + 4 x124 + 4 x174 + 4 x224 - 11 x274 <= 0
 c100: 4 x25 + 4 x75 + 4 x125 + 4 x175 + 4 x225 - 10 x275 <= 0
 c101: 4 x26 + 4 x76 + 4 x126 + 4 x176 + 4 x226 - 11 x276 <= 0
 c102: 4 x27 + 4 x77 + 4 x127 + 4 x177 + 4 x227 - 11 x277 <= 0
 c103: 4 x28 + 4 x78 + 4 x128 + 4 x178 + 4 x228 - 9 x278 <= 0
 c104: 4 x29 + 4 x79 + 4 x129 + 4 x179 + 4 x229 - 9 x279 <= 0
 c105: 4 x30 + 4 x80 + 4 x130 + 4 x180 + 4 x230 - 10 x280 <= 0
 c106: 4 x31 + 4 x81 + 4 x131 + 4 x181 + 4 x231 - 9 x281 <= 0
 c107: 4 x32 + 4 x82 + 4 x132 + 4 x182 + 4 x232 - 10 x282 <= 0
 c108: 4 x33 + 4 x83 + 4 x133 + 4 x183 + 4 x233 - 10 x283 <= 0
 c109: 4 x34 + 4 x84 + 4 x134 + 4 x184 + 4 x234 - 10 x284 <= 0
 c110: 4 x35 + 4 x85 + 4 x135 + 4 x185 + 4 x235 - 10 x285 <= 0
 c111: 4 x36 + 4 x86 + 4 x136 + 4 x186 + 4 x236 - 11 x286 <= 0
 c112: 4 x37 + 4 x87 + 4 x137 + 4 x187 + 4 x237 - 10 x287 <= 0
 c113: 4 x38 + 4 x88 + 4 x138 + 4 x188 + 4 x238 - 9 x288 <= 0
 c114: 4 x39 + 4 x89 + 4 x139 + 4 x189 + 4 x239 - 9 x289 <= 0
 c115: 4 x40 + 4 x90 + 4 x140 + 4 x190 + 4 x240 - 11 x290 <= 0
 c116: 4 x41 + 4 x91 + 4 x141 + 4 x191 + 4 x241 - 11 x291 <= 0
 c117: 4 x42 + 4 x92 + 4 x142 + 4 x192 + 4 x242 - 10 x292 <= 0
 c118: 4 x43 + 4 x93 + 4 x143 + 4 x193 + 4 x243 - 10 x293 <= 0
 c119: 4 x44 + 4 x94 + 4 x144 + 4 x194 + 4 x244 - 10 x294 <= 0
 c120: 4 x45 + 4 x95 + 4 x145 + 4 x195 + 4 x245 - 10 x295 <= 0
 c121: 4 x46 + 4 x96 + 4 x146 + 4 x196 + 4 x246 - 10 x296 <= 0
 c122: 4 x47 + 4 x97 + 4 x147 + 4 x197 + 4 x247 - 10 x297 <= 0
 c123: 4 x48 + 4 x98 + 4 x148 + 4 x198 + 4 x248 - 10 x298 <= 0
 c124: 4 x49 + 4 x99 + 4 x149 + 4 x199 + 4 x249 - 10 x299 <= 0
 c125: 4 x50 + 4 x100 + 4 x150 + 4 x200 + 4 x250 - 11 x300 <= 0
Bounds
 0 <= x1 <= 1
 0 <= x2 <= 1
 0 <= x3 <= 1
 0 <= x4 <= 1
 0 <= x5 <= 1
 0 <= x6 <= 1
 0 <= x7 <= 1
 0 <= x8 <= 1
 0 <= x9 <= 1
 0 <= x10 <= 1
 0 <= x11 <= 1
 0 <= x12 <= 1
 0 <= x13 <= 1
 0 <= x14 <= 1
 0 <= x15 <= 1
 0 <= x16 <= 1
 0 <= x17 <= 1
 0 <= x18 <= 1
 0 <= x19 <= 1
 0 <= x20 <= 1
 0 <= x21 <= 1
 0 <= x22 <= 1
 0 <= x23 <= 1
 0 <= x24 <= 1
 0 <= x25 <= 1
 0 <= x26 <= 1
 0 <= x27 <= 1
 0 <= x28 <= 1
 0 <= x29 <= 1
 0 <= x30 <= 1
 0 <= x31 <= 1
 0 <= x32 <= 1
 0 <= x33 <= 1
 0 <= x34 <= 1
 0 <= x35 <= 1
 0 <= x36 <= 1
 0 <= x37 <= 1
 0 <= x38 <= 1
 0 <= x39 <= 1
 0 <= x40 <= 1
 0 <= x41 <= 1
 0 <= x42 <= 1
 0 <= x43 <= 1
 0 <= x44 <= 1
 0 <= x45 <= 1
 0 <= x46 <= 1
 0 <= x47 <= 1
 0 <= x48 <= 1
 0 <= x49 <= 1
 0 <= x50 <= 1
 0 <= x51 <= 1
 0 <= x52 <= 1
 0 <= x53 <= 1
 0 <= x54 <= 1
 0 <= x55 <= 1
 0 <= x56 <= 1
 0 <= x57 <= 1
 0 <= x58 <= 1
 0 <= x59 <= 1
 0 <= x60 <= 1
 0 <= x61 <= 1
 0 <= x62 <= 1
 0 <= x63 <= 1
 0 <= x64 <= 1
 0 <= x65 <= 1
 0 <= x66 <= 1
 0 <= x67 <= 1
 0 <= x68 <= 1
 0 <= x69 <= 1
 0 <= x70 <= 1
 0 <= x71 <= 1
 0 <= x72 <= 1
 0 <= x73 <= 1
 0 <= x74 <= 1
 0 <= x75 <= 1
 0 <= x76 <= 1
 0 <= x77 <= 1
 0 <= x78 <= 1
 0 <= x79 <= 1
 0 <= x80 <= 1
 0 <= x81 <= 1
 0 <= x82 <= 1
 0 <= x83 <= 1
 0 <= x84 <= 1
 0 <= x85 <= 1
 0 <= x86 <= 1
 0 <= x87 <= 1
 0 <= x88 <= 1
 0 <= x89 <= 1
 0 <= x90 <= 1
 0 <= x91 <= 1
 0 <= x92 <= 1
 0 <= x93 <= 1
 0 <= x94 <= 1
 0 <= x95 <= 1
 0 <= x96 <= 1
 0 <= x97 <= 1
 0 <= x98 <= 1
 0 <= x99 <= 1
 0 <= x100 <= 1
 0 <= x101 <= 1
 0 <= x102 <= 1
 0 <= x103 <= 1
 0 <= x104 <= 1
 0 <= x105 <= 1
 0 <= x106 <= 1
 0 <= x107 <= 1
 0 <= x108 <= 1
 0 <= x109 <= 1
 0 <= x110 <= 1
 0 <= x111 <= 1
 0 <= x112 <= 1
 0 <= x113 <= 1
 0 <= x114 <= 1
 0 <= x115 <= 1
 0 <= x116 <= 1
 0 <= x117 <= 1
 0 <= x118 <= 1
 0 <= x119 <= 1
 0 <= x120 <= 1
 0 <= x121 <= 1
 0 <= x122 <= 1
 0 <= x123 <= 1
 0 <= x124 <= 1
 0 <= x125 <= 1
 0 <= x126 <= 1
 0 <= x127 <= 1
 0 <= x128 <= 1
 0 <= x129 <= 1
 0 <= x130 <= 1
 0 <= x131 <= 1
 0 <= x132 <= 1
 0 <= x133 <= 1
 0 <= x134 <= 1
 0 <= x135 <= 1
 0 <= x136 <= 1
 0 <= x137 <= 1
 0 <= x138 <= 1
 0 <= x139 <= 1
 0 <= x140 <= 1
 0 <= x141 <= 1
 0 <= x142 <= 1
 0 <= x143 <= 1
 0 <= x144 <= 1
 0 <= x145 <= 1
 0 <= x146 <= 1
 0 <= x147 <= 1
 0 <= x148 <= 1
 0 <= x149 <= 1
 0 <= x150 <= 1
 0 <= x151 <= 1
 0 <= x152 <= 1
 0 <= x153 <= 1
 0 <= x154 <= 1
 0 <= x155 <= 1
 0 <= x156 <= 1
 0 <= x157 <= 1
 0 <= x158 <= 1
 0 <= x159 <= 1
 0 <= x160 <= 1
 0 <= x161 <= 1
 0 <= x162 <= 1
 0 <= x163 <= 1
 0 <= x164 <= 1
 0 <= x165 <= 1
 0 <= x166 <= 1
 0 <= x167 <= 1
 0 <= x168 <= 1
 0 <= x169 <= 1
 0 <= x170 <= 1
 0 <= x171 <= 1
 0 <= x172 <= 1
 0 <= x173 <= 1
 0 <= x174 <= 1
 0 <= x175 <= 1
 0 <= x176 <= 1
 0 <= x177 <= 1
 0 <= x178 <= 1
 0 <= x179 <= 1
 0 <= x180 <= 1
 0 <= x181 <= 1
 0 <= x182 <= 1
 0 <= x183 <= 1
 0 <= x184 <= 1
 0 <= x185 <= 1
 0 <= x186 <= 1
 0 <= x187 <= 1
 0 <= x188 <= 1
 0 <= x189 <= 1
 0 <= x190 <= 1
 0 <= x191 <= 1
 0 <= x192 <= 1
 0 <= x193 <= 1
 0 <= x194 <= 1
 0 <= x195 <= 1
 0 <= x196 <= 1
 0 <= x197 <= 1
 0 <= x198 <= 1
 0 <= x199 <= 1
 0 <= x200 <= 1
 0 <= x201 <= 1
 0 <= x202 <= 1
 0 <= x203 <= 1
 0 <= x204 <= 1
 0 <= x205 <= 1
 0 <= x206 <= 1
 0 <= x207 <= 1
 0 <= x208 <= 1
 0 <= x209 <= 1
 0 <= x210 <= 1
 0 <= x211 <= 1
 0 <= x212 <= 1
 0 <= x213 <= 1
 0 <= x214 <= 1
 0 <= x215 <= 1
 0 <= x216 <= 1
 0 <= x217 <= 1
 0 <= x218 <= 1
 0 <= x219 <= 1
 0 <= x220 <= 1
 0 <= x221 <= 1
 0 <= x222 <= 1
 0 <= x223 <= 1
 0 <= x224 <= 1
 0 <= x225 <= 1
 0 <= x226 <= 1
 0 <= x227 <= 1
 0 <= x228 <= 1
 0 <= x229 <= 1
 0 <= x230 <= 1
 0 <= x231 <= 1
 0 <= x232 <= 1
 0 <= x233 <= 1
 0 <= x234 <= 1
 0 <= x235 <= 1
 0 <= x236 <= 1
 0 <= x237 <= 1
 0 <= x238 <= 1
 0 <= x239 <= 1
 0 <= x240 <= 1
 0 <= x241 <= 1
 0 <= x242 <= 1
 0 <= x243 <= 1
 0 <= x244 <= 1
 0 <= x245 <= 1
 0 <= x246 <= 1
 0 <= x247 <= 1
 0 <= x248 <= 1
 0 <= x249 <= 1
 0 <= x250 <= 1
 0 <= x251 <= 1
 0 <= x252 <= 1
 0 <= x253 <= 1
 0 <= x254 <= 1
 0 <= x255 <= 1
 0 <= x256 <= 1
 0 <= x257 <= 1
 0 <= x258 <= 1
 0 <= x259 <= 1
 0 <= x260 <= 1
 0 <= x261 <= 1
 0 <= x262 <= 1
 0 <= x263 <= 1
 0 <= x264 <= 1
 0 <= x265 <= 1
 0 <= x266 <= 1
 0 <= x267 <= 1
 0 <= x268 <= 1
 0 <= x269 <= 1
 0 <= x270 <= 1
 0 <= x271 <= 1
 0 <= x272 <= 1
 0 <= x273 <= 1
 0 <= x274 <= 1
 0 <= x275 <= 1
 0 <= x276 <= 1
 0 <= x277 <= 1
 0 <= x278 <= 1
 0 <= x279 <= 1
 0 <= x280 <= 1
 0 <= x281 <= 1
 0 <= x282 <= 1
 0 <= x283 <= 1
 0 <= x284 <= 1
 0 <= x285 <= 1
 0 <= x286 <= 1
 0 <= x287 <= 1
 0 <= x288 <= 1
 0 <= x289 <= 1
 0 <= x290 <= 1
 0 <= x291 <= 1
 0 <= x292 <= 1
 0 <= x293 <= 1
 0 <= x294 <= 1
 0 <= x295 <= 1
 0 <= x296 <= 1
 0 <= x297 <= 1
 0 <= x298 <= 1
 0 <= x299 <= 1
 0 <= x300 <= 1
Binaries
 x251  x252  x253  x254  x255  x256  x257  x258  x259  x260  x261  x262  x263 
 x264  x265  x266  x267  x268  x269  x270  x271  x272  x273  x274  x275  x276 
 x277  x278  x279  x280  x281  x282  x283  x284  x285  x286  x287  x288  x289 
 x290  x291  x292  x293  x294  x295  x296  x297  x298  x299  x300 
End
